# This file contains the results of an optimised parametrisation of the measured materials manifold
# e
# inverse mapping matrix
5 5
            178.48062001230691968334252095473857480101287364959716796875               -119.41996073635026986980989249786944128572940826416015625            16.9986168901286541395301288304153786157257854938507080078125             -74.61454647643396216605271575872393441386520862579345703125      0.24972874602649719415312264125805796766144339926540851593017578125
          -119.419960736350081888235141747145462431944906711578369140625              87.22666543585965688578642840411703218705952167510986328125           -14.2374091537889362439617269018299339222721755504608154296875            44.7545041570188728806412026273164883605204522609710693359375      -0.5293596685920738537643216725658845689395093359053134918212890625
           16.9986168901286532166572396107540043885819613933563232421875           -14.2374091537889533899685634565912550897337496280670166015625           3.923593938485367632086620037767943358630873262882232666015625         -5.5002975079258610078929148112791835956159047782421112060546875  -0.02758917666278725734302162096722721429387092939577996730804443359375
            -74.61454647643409456014840230864137993194162845611572265625             44.754504157019040187781566686453516012988984584808349609375           -5.50029750792587390599563956783413232187740504741668701171875              35.99073273773921298468447815821491531096398830413818359375          0.1607206291851638675811930756509582352009601891040802001953125
        0.24972874602650501512680902838070551297278143465518951416015625        -0.52935966859207929532081526868836363064474426209926605224609375 -0.027589176662786517807025702710144177132178811007179319858551025390625     0.160720629185160736960972550912973844106090837158262729644775390625         1.05300031615306133639907437693494784980430267751216888427734375
# latent variables
5
2
cherry-235.binary -0.2641282703133312329316605138185281020923866890370845794677734375 -0.6575355227161147053378635607412405761351692490279674530029296875
pink-fabric.binary -0.3140596668394765776329870254901521775536821223795413970947265625   -0.38291507329467469621965547421638120795250870287418365478515625
silver-metallic-paint2.binary -0.751074339853680684520910448842556661475100554525852203369140625   0.42790484084976498761233865142372678747051395475864410400390625
natural-209.binary -0.3738627229935115055107532067157904975829296745359897613525390625  -0.950728363482637784374375267137935452410602010786533355712890625
chrome.binary 0.999999999999999999891579782751449556599254719913005828857421875   0.9997975561436591497056769473061876851716078817844390869140625
